\ Model sp_11_3
\ LP format - for model browsing. Use MPS format to capture full model detail.
\ Signature: 0xb050d3b5baabe1c8
Minimize
  35 y[0,1] + 28.3 y[0,2] + 51.79 y[0,3] + 26.25 y[0,4] + 51.09 y[0,5]
   + 38.05 y[0,6] + 42.3 y[0,7] + 69.3 y[0,8] + 63.64 y[0,9] + 25.5 y[0,10]
   + 35 y[1,0] + 52.35 y[1,2] + 35.51 y[1,3] + 60.42 y[1,4] + 63.6 y[1,5]
   + 31.06 y[1,6] + 67.07 y[1,7] + 35 y[1,8] + 29.41 y[1,9] + 45.04 y[1,10]
   + 28.3 y[2,0] + 52.35 y[2,1] + 48.84 y[2,3] + 23.02 y[2,4]
   + 25.63 y[2,5] + 34.71 y[2,6] + 63.95 y[2,7] + 8.06 y[2,10]
   + 51.79 y[3,0] + 35.51 y[3,1] + 48.84 y[3,2] + 68.1 y[3,4]
   + 43.68 y[3,5] + 14.76 y[3,6] + 40.05 y[3,8] + 36.5 y[3,9]
   + 41.23 y[3,10] + 26.25 y[4,0] + 60.42 y[4,1] + 23.02 y[4,2]
   + 68.1 y[4,3] + 47.68 y[4,5] + 53.34 y[4,6] + 45.34 y[4,7]
   + 28.16 y[4,10] + 51.09 y[5,0] + 63.6 y[5,1] + 25.63 y[5,2]
   + 43.68 y[5,3] + 47.68 y[5,4] + 35.01 y[5,6] + 25.61 y[5,10]
   + 38.05 y[6,0] + 31.06 y[6,1] + 34.71 y[6,2] + 14.76 y[6,3]
   + 53.34 y[6,4] + 35.01 y[6,5] + 48.27 y[6,8] + 43.57 y[6,9]
   + 26.87 y[6,10] + 42.3 y[7,0] + 67.07 y[7,1] + 63.95 y[7,2]
   + 45.34 y[7,4] + 64.85 y[7,10] + 69.3 y[8,0] + 35 y[8,1] + 40.05 y[8,3]
   + 48.27 y[8,6] + 5.66 y[8,9] + 72.5 y[8,10] + 63.64 y[9,0]
   + 29.41 y[9,1] + 36.5 y[9,3] + 43.57 y[9,6] + 5.66 y[9,8]
   + 67.23 y[9,10] + 25.5 y[10,0] + 45.04 y[10,1] + 8.06 y[10,2]
   + 41.23 y[10,3] + 28.16 y[10,4] + 25.61 y[10,5] + 26.87 y[10,6]
   + 64.85 y[10,7] + 72.5 y[10,8] + 67.23 y[10,9] + 3.5 r[0,1]
   + 2.83 r[0,2] + 5.179 r[0,3] + 2.625 r[0,4] + 5.109 r[0,5]
   + 3.805 r[0,6] + 4.23 r[0,7] + 6.93 r[0,8] + 6.364 r[0,9] + 2.55 r[0,10]
   + 3.5 r[1,0] + 5.235 r[1,2] + 3.551 r[1,3] + 6.042 r[1,4] + 6.36 r[1,5]
   + 3.106 r[1,6] + 6.707 r[1,7] + 3.5 r[1,8] + 2.941 r[1,9]
   + 4.504 r[1,10] + 2.83 r[2,0] + 5.235 r[2,1] + 4.884 r[2,3]
   + 2.302 r[2,4] + 2.563 r[2,5] + 3.471 r[2,6] + 6.395 r[2,7]
   + 0.806 r[2,10] + 5.179 r[3,0] + 3.551 r[3,1] + 4.884 r[3,2]
   + 6.81 r[3,4] + 4.368 r[3,5] + 1.476 r[3,6] + 4.005 r[3,8] + 3.65 r[3,9]
   + 4.123 r[3,10] + 2.625 r[4,0] + 6.042 r[4,1] + 2.302 r[4,2]
   + 6.81 r[4,3] + 4.768 r[4,5] + 5.334 r[4,6] + 4.534 r[4,7]
   + 2.816 r[4,10] + 5.109 r[5,0] + 6.36 r[5,1] + 2.563 r[5,2]
   + 4.368 r[5,3] + 4.768 r[5,4] + 3.501 r[5,6] + 2.561 r[5,10]
   + 3.805 r[6,0] + 3.106 r[6,1] + 3.471 r[6,2] + 1.476 r[6,3]
   + 5.334 r[6,4] + 3.501 r[6,5] + 4.827 r[6,8] + 4.357 r[6,9]
   + 2.687 r[6,10] + 4.23 r[7,0] + 6.707 r[7,1] + 6.395 r[7,2]
   + 4.534 r[7,4] + 6.485 r[7,10] + 6.93 r[8,0] + 3.5 r[8,1] + 4.005 r[8,3]
   + 4.827 r[8,6] + 0.566 r[8,9] + 7.25 r[8,10] + 6.364 r[9,0]
   + 2.941 r[9,1] + 3.65 r[9,3] + 4.357 r[9,6] + 0.566 r[9,8]
   + 6.723 r[9,10] + 2.55 r[10,0] + 4.504 r[10,1] + 0.806 r[10,2]
   + 4.123 r[10,3] + 2.816 r[10,4] + 2.561 r[10,5] + 2.687 r[10,6]
   + 6.485 r[10,7] + 7.25 r[10,8] + 6.723 r[10,9]
Subject To
 flow_cons_inner_nodes[0]: - y[0,1] - y[0,2] - y[0,3] - y[0,4] - y[0,5]
   - y[0,6] - y[0,7] - y[0,8] - y[0,9] - y[0,10] + y[1,0] + y[2,0] + y[3,0]
   + y[4,0] + y[5,0] + y[6,0] + y[7,0] + y[8,0] + y[9,0] + y[10,0] = 0
 flow_cons_inner_nodes[1]: y[0,1] - y[1,0] - y[1,2] - y[1,3] - y[1,4]
   - y[1,5] - y[1,6] - y[1,7] - y[1,8] - y[1,9] - y[1,10] + y[2,1] + y[3,1]
   + y[4,1] + y[5,1] + y[6,1] + y[7,1] + y[8,1] + y[9,1] + y[10,1] = 0
 flow_cons_inner_nodes[2]: y[0,2] + y[1,2] - y[2,0] - y[2,1] - y[2,3]
   - y[2,4] - y[2,5] - y[2,6] - y[2,7] - y[2,10] + y[3,2] + y[4,2] + y[5,2]
   + y[6,2] + y[7,2] + y[10,2] = 0
 flow_cons_inner_nodes[3]: y[0,3] + y[1,3] + y[2,3] - y[3,0] - y[3,1]
   - y[3,2] - y[3,4] - y[3,5] - y[3,6] - y[3,8] - y[3,9] - y[3,10] + y[4,3]
   + y[5,3] + y[6,3] + y[8,3] + y[9,3] + y[10,3] = 0
 flow_cons_inner_nodes[4]: y[0,4] + y[1,4] + y[2,4] + y[3,4] - y[4,0]
   - y[4,1] - y[4,2] - y[4,3] - y[4,5] - y[4,6] - y[4,7] - y[4,10] + y[5,4]
   + y[6,4] + y[7,4] + y[10,4] = 0
 flow_cons_inner_nodes[5]: y[0,5] + y[1,5] + y[2,5] + y[3,5] + y[4,5]
   - y[5,0] - y[5,1] - y[5,2] - y[5,3] - y[5,4] - y[5,6] - y[5,10] + y[6,5]
   + y[10,5] = 0
 flow_cons_inner_nodes[6]: y[0,6] + y[1,6] + y[2,6] + y[3,6] + y[4,6]
   + y[5,6] - y[6,0] - y[6,1] - y[6,2] - y[6,3] - y[6,4] - y[6,5] - y[6,8]
   - y[6,9] - y[6,10] + y[8,6] + y[9,6] + y[10,6] = 0
 flow_cons_inner_nodes[9]: y[0,9] + y[1,9] + y[3,9] + y[6,9] + y[8,9]
   - y[9,0] - y[9,1] - y[9,3] - y[9,6] - y[9,8] - y[9,10] + y[10,9] = 0
 flow_cons_inner_nodes[10]: y[0,10] + y[1,10] + y[2,10] + y[3,10] + y[4,10]
   + y[5,10] + y[6,10] + y[7,10] + y[8,10] + y[9,10] - y[10,0] - y[10,1]
   - y[10,2] - y[10,3] - y[10,4] - y[10,5] - y[10,6] - y[10,7] - y[10,8]
   - y[10,9] = 0
 flow_cons_source: - y[0,7] - y[1,7] - y[2,7] - y[4,7] + y[7,0] + y[7,1]
   + y[7,2] + y[7,4] + y[7,10] - y[10,7] = 1
 flow_cons_target: y[0,8] + y[1,8] + y[3,8] + y[6,8] - y[8,0] - y[8,1]
   - y[8,3] - y[8,6] - y[8,9] - y[8,10] + y[9,8] + y[10,8] = 1
 primal_lower: - 4.56 y[0,1] - 2.54 y[0,2] - 1.3 y[0,3] - 0.36 y[0,4]
   - 2.05 y[0,5] - 2.18 y[0,6] - 0.22 y[0,7] - 0.75 y[0,8] - 0.53 y[0,9]
   - 2.89 y[0,10] - 3.95 y[1,0] - 3 y[1,2] - 4.57 y[1,3] - 2.17 y[1,4]
   - 2.85 y[1,5] - 1.3 y[1,6] - 4.5 y[1,7] - 3.11 y[1,8] - 2.03 y[1,9]
   - 1.34 y[1,10] - 2.35 y[2,0] - 0.52 y[2,1] - 1.05 y[2,3] - 2.21 y[2,4]
   - 1.12 y[2,5] - 1.79 y[2,6] - 3.78 y[2,7] - 0.34 y[2,10] - 4.26 y[3,0]
   - 1.04 y[3,1] - 3.26 y[3,2] - 0.51 y[3,4] - 2.77 y[3,5] - 1.88 y[3,6]
   - 3.86 y[3,8] - 1.15 y[3,9] - 2.11 y[3,10] - 2.57 y[4,0] - 1.16 y[4,1]
   - 0.51 y[4,2] - 3.35 y[4,3] - 1.43 y[4,5] - 3.81 y[4,6] - 2.08 y[4,7]
   - 0.43 y[4,10] - 4.09 y[5,0] - 3.42 y[5,1] - 0.56 y[5,2] - 3.95 y[5,3]
   - 0.31 y[5,4] - 0.85 y[5,6] - 0.79 y[5,10] - 4.26 y[6,0] - 3.07 y[6,1]
   - 1.18 y[6,2] - 1.16 y[6,3] - 4.54 y[6,4] - 3.13 y[6,5] - 1.86 y[6,8]
   - 0.3 y[6,9] - 2.05 y[6,10] - 0.96 y[7,0] - 1.49 y[7,1] - 3 y[7,2]
   - 3.34 y[7,4] - 2.16 y[7,10] - 0.87 y[8,0] - 1.37 y[8,1] - 0.65 y[8,3]
   - 0.44 y[8,6] - 2.27 y[8,9] - 4.57 y[8,10] - 4.06 y[9,0] - 0.74 y[9,1]
   - 1.41 y[9,3] - 2.79 y[9,6] - 4.34 y[9,8] - 3.38 y[9,10] - 0.18 y[10,0]
   - 0.74 y[10,1] - 0.3 y[10,2] - 2.05 y[10,3] - 3.87 y[10,4]
   - 2.57 y[10,5] - 4.56 y[10,6] - 3.52 y[10,7] - 4.34 y[10,8]
   - 3.35 y[10,9] + 95 u[0,1] + 88 u[0,2] + 12 u[0,3] + 76 u[0,4]
   + 14 u[0,5] + 58 u[0,6] + 23 u[0,7] + 38 u[0,8] + 32 u[0,9] + 19 u[0,10]
   + 93 u[1,0] + 67 u[1,2] + 57 u[1,3] + 55 u[1,4] + 67 u[1,5] + 49 u[1,6]
   + 41 u[1,7] + 8 u[1,8] + 58 u[1,9] + 96 u[1,10] + 3 u[2,0] + 73 u[2,1]
   + 91 u[2,3] + 73 u[2,4] + 48 u[2,5] + 45 u[2,6] + 88 u[2,7] + 92 u[2,10]
   + 56 u[3,0] + 61 u[3,1] + 48 u[3,2] + 82 u[3,4] + 41 u[3,5] + 48 u[3,6]
   + 4 u[3,8] + 36 u[3,9] + 33 u[3,10] + 100 u[4,0] + 70 u[4,1] + 47 u[4,2]
   + 13 u[4,3] + 99 u[4,5] + 67 u[4,6] + 9 u[4,7] + 36 u[4,10] + 22 u[5,0]
   + 78 u[5,1] + 70 u[5,2] + 20 u[5,3] + 47 u[5,4] + 56 u[5,6] + 8 u[5,10]
   + 10 u[6,0] + 18 u[6,1] + 47 u[6,2] + 9 u[6,3] + 13 u[6,4] + 96 u[6,5]
   + 87 u[6,8] + 62 u[6,9] + 13 u[6,10] + 91 u[7,0] + 71 u[7,1] + 74 u[7,2]
   + 35 u[7,4] + 30 u[7,10] + 73 u[8,0] + 29 u[8,1] + 56 u[8,3] + 61 u[8,6]
   + 81 u[8,9] + 67 u[8,10] + 92 u[9,0] + 15 u[9,1] + 56 u[9,3] + 53 u[9,6]
   + 20 u[9,8] + 24 u[9,10] + 6 u[10,0] + 53 u[10,1] + 87 u[10,2]
   + 70 u[10,3] + u[10,4] + 79 u[10,5] + 26 u[10,6] + 7 u[10,7]
   + 57 u[10,8] + 93 u[10,9] <= 406
 mccormick1[0,1]: - u[0,1] + r[0,1] <= 0
 mccormick1[0,2]: - u[0,2] + r[0,2] <= 0
 mccormick1[0,3]: - u[0,3] + r[0,3] <= 0
 mccormick1[0,4]: - u[0,4] + r[0,4] <= 0
 mccormick1[0,5]: - u[0,5] + r[0,5] <= 0
 mccormick1[0,6]: - u[0,6] + r[0,6] <= 0
 mccormick1[0,7]: - u[0,7] + r[0,7] <= 0
 mccormick1[0,8]: - u[0,8] + r[0,8] <= 0
 mccormick1[0,9]: - u[0,9] + r[0,9] <= 0
 mccormick1[0,10]: - u[0,10] + r[0,10] <= 0
 mccormick1[1,0]: - u[1,0] + r[1,0] <= 0
 mccormick1[1,2]: - u[1,2] + r[1,2] <= 0
 mccormick1[1,3]: - u[1,3] + r[1,3] <= 0
 mccormick1[1,4]: - u[1,4] + r[1,4] <= 0
 mccormick1[1,5]: - u[1,5] + r[1,5] <= 0
 mccormick1[1,6]: - u[1,6] + r[1,6] <= 0
 mccormick1[1,7]: - u[1,7] + r[1,7] <= 0
 mccormick1[1,8]: - u[1,8] + r[1,8] <= 0
 mccormick1[1,9]: - u[1,9] + r[1,9] <= 0
 mccormick1[1,10]: - u[1,10] + r[1,10] <= 0
 mccormick1[2,0]: - u[2,0] + r[2,0] <= 0
 mccormick1[2,1]: - u[2,1] + r[2,1] <= 0
 mccormick1[2,3]: - u[2,3] + r[2,3] <= 0
 mccormick1[2,4]: - u[2,4] + r[2,4] <= 0
 mccormick1[2,5]: - u[2,5] + r[2,5] <= 0
 mccormick1[2,6]: - u[2,6] + r[2,6] <= 0
 mccormick1[2,7]: - u[2,7] + r[2,7] <= 0
 mccormick1[2,10]: - u[2,10] + r[2,10] <= 0
 mccormick1[3,0]: - u[3,0] + r[3,0] <= 0
 mccormick1[3,1]: - u[3,1] + r[3,1] <= 0
 mccormick1[3,2]: - u[3,2] + r[3,2] <= 0
 mccormick1[3,4]: - u[3,4] + r[3,4] <= 0
 mccormick1[3,5]: - u[3,5] + r[3,5] <= 0
 mccormick1[3,6]: - u[3,6] + r[3,6] <= 0
 mccormick1[3,8]: - u[3,8] + r[3,8] <= 0
 mccormick1[3,9]: - u[3,9] + r[3,9] <= 0
 mccormick1[3,10]: - u[3,10] + r[3,10] <= 0
 mccormick1[4,0]: - u[4,0] + r[4,0] <= 0
 mccormick1[4,1]: - u[4,1] + r[4,1] <= 0
 mccormick1[4,2]: - u[4,2] + r[4,2] <= 0
 mccormick1[4,3]: - u[4,3] + r[4,3] <= 0
 mccormick1[4,5]: - u[4,5] + r[4,5] <= 0
 mccormick1[4,6]: - u[4,6] + r[4,6] <= 0
 mccormick1[4,7]: - u[4,7] + r[4,7] <= 0
 mccormick1[4,10]: - u[4,10] + r[4,10] <= 0
 mccormick1[5,0]: - u[5,0] + r[5,0] <= 0
 mccormick1[5,1]: - u[5,1] + r[5,1] <= 0
 mccormick1[5,2]: - u[5,2] + r[5,2] <= 0
 mccormick1[5,3]: - u[5,3] + r[5,3] <= 0
 mccormick1[5,4]: - u[5,4] + r[5,4] <= 0
 mccormick1[5,6]: - u[5,6] + r[5,6] <= 0
 mccormick1[5,10]: - u[5,10] + r[5,10] <= 0
 mccormick1[6,0]: - u[6,0] + r[6,0] <= 0
 mccormick1[6,1]: - u[6,1] + r[6,1] <= 0
 mccormick1[6,2]: - u[6,2] + r[6,2] <= 0
 mccormick1[6,3]: - u[6,3] + r[6,3] <= 0
 mccormick1[6,4]: - u[6,4] + r[6,4] <= 0
 mccormick1[6,5]: - u[6,5] + r[6,5] <= 0
 mccormick1[6,8]: - u[6,8] + r[6,8] <= 0
 mccormick1[6,9]: - u[6,9] + r[6,9] <= 0
 mccormick1[6,10]: - u[6,10] + r[6,10] <= 0
 mccormick1[7,0]: - u[7,0] + r[7,0] <= 0
 mccormick1[7,1]: - u[7,1] + r[7,1] <= 0
 mccormick1[7,2]: - u[7,2] + r[7,2] <= 0
 mccormick1[7,4]: - u[7,4] + r[7,4] <= 0
 mccormick1[7,10]: - u[7,10] + r[7,10] <= 0
 mccormick1[8,0]: - u[8,0] + r[8,0] <= 0
 mccormick1[8,1]: - u[8,1] + r[8,1] <= 0
 mccormick1[8,3]: - u[8,3] + r[8,3] <= 0
 mccormick1[8,6]: - u[8,6] + r[8,6] <= 0
 mccormick1[8,9]: - u[8,9] + r[8,9] <= 0
 mccormick1[8,10]: - u[8,10] + r[8,10] <= 0
 mccormick1[9,0]: - u[9,0] + r[9,0] <= 0
 mccormick1[9,1]: - u[9,1] + r[9,1] <= 0
 mccormick1[9,3]: - u[9,3] + r[9,3] <= 0
 mccormick1[9,6]: - u[9,6] + r[9,6] <= 0
 mccormick1[9,8]: - u[9,8] + r[9,8] <= 0
 mccormick1[9,10]: - u[9,10] + r[9,10] <= 0
 mccormick1[10,0]: - u[10,0] + r[10,0] <= 0
 mccormick1[10,1]: - u[10,1] + r[10,1] <= 0
 mccormick1[10,2]: - u[10,2] + r[10,2] <= 0
 mccormick1[10,3]: - u[10,3] + r[10,3] <= 0
 mccormick1[10,4]: - u[10,4] + r[10,4] <= 0
 mccormick1[10,5]: - u[10,5] + r[10,5] <= 0
 mccormick1[10,6]: - u[10,6] + r[10,6] <= 0
 mccormick1[10,7]: - u[10,7] + r[10,7] <= 0
 mccormick1[10,8]: - u[10,8] + r[10,8] <= 0
 mccormick1[10,9]: - u[10,9] + r[10,9] <= 0
 mccormick2[0,1]: - y[0,1] + r[0,1] <= 0
 mccormick2[0,2]: - y[0,2] + r[0,2] <= 0
 mccormick2[0,3]: - y[0,3] + r[0,3] <= 0
 mccormick2[0,4]: - y[0,4] + r[0,4] <= 0
 mccormick2[0,5]: - y[0,5] + r[0,5] <= 0
 mccormick2[0,6]: - y[0,6] + r[0,6] <= 0
 mccormick2[0,7]: - y[0,7] + r[0,7] <= 0
 mccormick2[0,8]: - y[0,8] + r[0,8] <= 0
 mccormick2[0,9]: - y[0,9] + r[0,9] <= 0
 mccormick2[0,10]: - y[0,10] + r[0,10] <= 0
 mccormick2[1,0]: - y[1,0] + r[1,0] <= 0
 mccormick2[1,2]: - y[1,2] + r[1,2] <= 0
 mccormick2[1,3]: - y[1,3] + r[1,3] <= 0
 mccormick2[1,4]: - y[1,4] + r[1,4] <= 0
 mccormick2[1,5]: - y[1,5] + r[1,5] <= 0
 mccormick2[1,6]: - y[1,6] + r[1,6] <= 0
 mccormick2[1,7]: - y[1,7] + r[1,7] <= 0
 mccormick2[1,8]: - y[1,8] + r[1,8] <= 0
 mccormick2[1,9]: - y[1,9] + r[1,9] <= 0
 mccormick2[1,10]: - y[1,10] + r[1,10] <= 0
 mccormick2[2,0]: - y[2,0] + r[2,0] <= 0
 mccormick2[2,1]: - y[2,1] + r[2,1] <= 0
 mccormick2[2,3]: - y[2,3] + r[2,3] <= 0
 mccormick2[2,4]: - y[2,4] + r[2,4] <= 0
 mccormick2[2,5]: - y[2,5] + r[2,5] <= 0
 mccormick2[2,6]: - y[2,6] + r[2,6] <= 0
 mccormick2[2,7]: - y[2,7] + r[2,7] <= 0
 mccormick2[2,10]: - y[2,10] + r[2,10] <= 0
 mccormick2[3,0]: - y[3,0] + r[3,0] <= 0
 mccormick2[3,1]: - y[3,1] + r[3,1] <= 0
 mccormick2[3,2]: - y[3,2] + r[3,2] <= 0
 mccormick2[3,4]: - y[3,4] + r[3,4] <= 0
 mccormick2[3,5]: - y[3,5] + r[3,5] <= 0
 mccormick2[3,6]: - y[3,6] + r[3,6] <= 0
 mccormick2[3,8]: - y[3,8] + r[3,8] <= 0
 mccormick2[3,9]: - y[3,9] + r[3,9] <= 0
 mccormick2[3,10]: - y[3,10] + r[3,10] <= 0
 mccormick2[4,0]: - y[4,0] + r[4,0] <= 0
 mccormick2[4,1]: - y[4,1] + r[4,1] <= 0
 mccormick2[4,2]: - y[4,2] + r[4,2] <= 0
 mccormick2[4,3]: - y[4,3] + r[4,3] <= 0
 mccormick2[4,5]: - y[4,5] + r[4,5] <= 0
 mccormick2[4,6]: - y[4,6] + r[4,6] <= 0
 mccormick2[4,7]: - y[4,7] + r[4,7] <= 0
 mccormick2[4,10]: - y[4,10] + r[4,10] <= 0
 mccormick2[5,0]: - y[5,0] + r[5,0] <= 0
 mccormick2[5,1]: - y[5,1] + r[5,1] <= 0
 mccormick2[5,2]: - y[5,2] + r[5,2] <= 0
 mccormick2[5,3]: - y[5,3] + r[5,3] <= 0
 mccormick2[5,4]: - y[5,4] + r[5,4] <= 0
 mccormick2[5,6]: - y[5,6] + r[5,6] <= 0
 mccormick2[5,10]: - y[5,10] + r[5,10] <= 0
 mccormick2[6,0]: - y[6,0] + r[6,0] <= 0
 mccormick2[6,1]: - y[6,1] + r[6,1] <= 0
 mccormick2[6,2]: - y[6,2] + r[6,2] <= 0
 mccormick2[6,3]: - y[6,3] + r[6,3] <= 0
 mccormick2[6,4]: - y[6,4] + r[6,4] <= 0
 mccormick2[6,5]: - y[6,5] + r[6,5] <= 0
 mccormick2[6,8]: - y[6,8] + r[6,8] <= 0
 mccormick2[6,9]: - y[6,9] + r[6,9] <= 0
 mccormick2[6,10]: - y[6,10] + r[6,10] <= 0
 mccormick2[7,0]: - y[7,0] + r[7,0] <= 0
 mccormick2[7,1]: - y[7,1] + r[7,1] <= 0
 mccormick2[7,2]: - y[7,2] + r[7,2] <= 0
 mccormick2[7,4]: - y[7,4] + r[7,4] <= 0
 mccormick2[7,10]: - y[7,10] + r[7,10] <= 0
 mccormick2[8,0]: - y[8,0] + r[8,0] <= 0
 mccormick2[8,1]: - y[8,1] + r[8,1] <= 0
 mccormick2[8,3]: - y[8,3] + r[8,3] <= 0
 mccormick2[8,6]: - y[8,6] + r[8,6] <= 0
 mccormick2[8,9]: - y[8,9] + r[8,9] <= 0
 mccormick2[8,10]: - y[8,10] + r[8,10] <= 0
 mccormick2[9,0]: - y[9,0] + r[9,0] <= 0
 mccormick2[9,1]: - y[9,1] + r[9,1] <= 0
 mccormick2[9,3]: - y[9,3] + r[9,3] <= 0
 mccormick2[9,6]: - y[9,6] + r[9,6] <= 0
 mccormick2[9,8]: - y[9,8] + r[9,8] <= 0
 mccormick2[9,10]: - y[9,10] + r[9,10] <= 0
 mccormick2[10,0]: - y[10,0] + r[10,0] <= 0
 mccormick2[10,1]: - y[10,1] + r[10,1] <= 0
 mccormick2[10,2]: - y[10,2] + r[10,2] <= 0
 mccormick2[10,3]: - y[10,3] + r[10,3] <= 0
 mccormick2[10,4]: - y[10,4] + r[10,4] <= 0
 mccormick2[10,5]: - y[10,5] + r[10,5] <= 0
 mccormick2[10,6]: - y[10,6] + r[10,6] <= 0
 mccormick2[10,7]: - y[10,7] + r[10,7] <= 0
 mccormick2[10,8]: - y[10,8] + r[10,8] <= 0
 mccormick2[10,9]: - y[10,9] + r[10,9] <= 0
 mccormick3[0,1]: - y[0,1] - u[0,1] + r[0,1] >= -1
 mccormick3[0,2]: - y[0,2] - u[0,2] + r[0,2] >= -1
 mccormick3[0,3]: - y[0,3] - u[0,3] + r[0,3] >= -1
 mccormick3[0,4]: - y[0,4] - u[0,4] + r[0,4] >= -1
 mccormick3[0,5]: - y[0,5] - u[0,5] + r[0,5] >= -1
 mccormick3[0,6]: - y[0,6] - u[0,6] + r[0,6] >= -1
 mccormick3[0,7]: - y[0,7] - u[0,7] + r[0,7] >= -1
 mccormick3[0,8]: - y[0,8] - u[0,8] + r[0,8] >= -1
 mccormick3[0,9]: - y[0,9] - u[0,9] + r[0,9] >= -1
 mccormick3[0,10]: - y[0,10] - u[0,10] + r[0,10] >= -1
 mccormick3[1,0]: - y[1,0] - u[1,0] + r[1,0] >= -1
 mccormick3[1,2]: - y[1,2] - u[1,2] + r[1,2] >= -1
 mccormick3[1,3]: - y[1,3] - u[1,3] + r[1,3] >= -1
 mccormick3[1,4]: - y[1,4] - u[1,4] + r[1,4] >= -1
 mccormick3[1,5]: - y[1,5] - u[1,5] + r[1,5] >= -1
 mccormick3[1,6]: - y[1,6] - u[1,6] + r[1,6] >= -1
 mccormick3[1,7]: - y[1,7] - u[1,7] + r[1,7] >= -1
 mccormick3[1,8]: - y[1,8] - u[1,8] + r[1,8] >= -1
 mccormick3[1,9]: - y[1,9] - u[1,9] + r[1,9] >= -1
 mccormick3[1,10]: - y[1,10] - u[1,10] + r[1,10] >= -1
 mccormick3[2,0]: - y[2,0] - u[2,0] + r[2,0] >= -1
 mccormick3[2,1]: - y[2,1] - u[2,1] + r[2,1] >= -1
 mccormick3[2,3]: - y[2,3] - u[2,3] + r[2,3] >= -1
 mccormick3[2,4]: - y[2,4] - u[2,4] + r[2,4] >= -1
 mccormick3[2,5]: - y[2,5] - u[2,5] + r[2,5] >= -1
 mccormick3[2,6]: - y[2,6] - u[2,6] + r[2,6] >= -1
 mccormick3[2,7]: - y[2,7] - u[2,7] + r[2,7] >= -1
 mccormick3[2,10]: - y[2,10] - u[2,10] + r[2,10] >= -1
 mccormick3[3,0]: - y[3,0] - u[3,0] + r[3,0] >= -1
 mccormick3[3,1]: - y[3,1] - u[3,1] + r[3,1] >= -1
 mccormick3[3,2]: - y[3,2] - u[3,2] + r[3,2] >= -1
 mccormick3[3,4]: - y[3,4] - u[3,4] + r[3,4] >= -1
 mccormick3[3,5]: - y[3,5] - u[3,5] + r[3,5] >= -1
 mccormick3[3,6]: - y[3,6] - u[3,6] + r[3,6] >= -1
 mccormick3[3,8]: - y[3,8] - u[3,8] + r[3,8] >= -1
 mccormick3[3,9]: - y[3,9] - u[3,9] + r[3,9] >= -1
 mccormick3[3,10]: - y[3,10] - u[3,10] + r[3,10] >= -1
 mccormick3[4,0]: - y[4,0] - u[4,0] + r[4,0] >= -1
 mccormick3[4,1]: - y[4,1] - u[4,1] + r[4,1] >= -1
 mccormick3[4,2]: - y[4,2] - u[4,2] + r[4,2] >= -1
 mccormick3[4,3]: - y[4,3] - u[4,3] + r[4,3] >= -1
 mccormick3[4,5]: - y[4,5] - u[4,5] + r[4,5] >= -1
 mccormick3[4,6]: - y[4,6] - u[4,6] + r[4,6] >= -1
 mccormick3[4,7]: - y[4,7] - u[4,7] + r[4,7] >= -1
 mccormick3[4,10]: - y[4,10] - u[4,10] + r[4,10] >= -1
 mccormick3[5,0]: - y[5,0] - u[5,0] + r[5,0] >= -1
 mccormick3[5,1]: - y[5,1] - u[5,1] + r[5,1] >= -1
 mccormick3[5,2]: - y[5,2] - u[5,2] + r[5,2] >= -1
 mccormick3[5,3]: - y[5,3] - u[5,3] + r[5,3] >= -1
 mccormick3[5,4]: - y[5,4] - u[5,4] + r[5,4] >= -1
 mccormick3[5,6]: - y[5,6] - u[5,6] + r[5,6] >= -1
 mccormick3[5,10]: - y[5,10] - u[5,10] + r[5,10] >= -1
 mccormick3[6,0]: - y[6,0] - u[6,0] + r[6,0] >= -1
 mccormick3[6,1]: - y[6,1] - u[6,1] + r[6,1] >= -1
 mccormick3[6,2]: - y[6,2] - u[6,2] + r[6,2] >= -1
 mccormick3[6,3]: - y[6,3] - u[6,3] + r[6,3] >= -1
 mccormick3[6,4]: - y[6,4] - u[6,4] + r[6,4] >= -1
 mccormick3[6,5]: - y[6,5] - u[6,5] + r[6,5] >= -1
 mccormick3[6,8]: - y[6,8] - u[6,8] + r[6,8] >= -1
 mccormick3[6,9]: - y[6,9] - u[6,9] + r[6,9] >= -1
 mccormick3[6,10]: - y[6,10] - u[6,10] + r[6,10] >= -1
 mccormick3[7,0]: - y[7,0] - u[7,0] + r[7,0] >= -1
 mccormick3[7,1]: - y[7,1] - u[7,1] + r[7,1] >= -1
 mccormick3[7,2]: - y[7,2] - u[7,2] + r[7,2] >= -1
 mccormick3[7,4]: - y[7,4] - u[7,4] + r[7,4] >= -1
 mccormick3[7,10]: - y[7,10] - u[7,10] + r[7,10] >= -1
 mccormick3[8,0]: - y[8,0] - u[8,0] + r[8,0] >= -1
 mccormick3[8,1]: - y[8,1] - u[8,1] + r[8,1] >= -1
 mccormick3[8,3]: - y[8,3] - u[8,3] + r[8,3] >= -1
 mccormick3[8,6]: - y[8,6] - u[8,6] + r[8,6] >= -1
 mccormick3[8,9]: - y[8,9] - u[8,9] + r[8,9] >= -1
 mccormick3[8,10]: - y[8,10] - u[8,10] + r[8,10] >= -1
 mccormick3[9,0]: - y[9,0] - u[9,0] + r[9,0] >= -1
 mccormick3[9,1]: - y[9,1] - u[9,1] + r[9,1] >= -1
 mccormick3[9,3]: - y[9,3] - u[9,3] + r[9,3] >= -1
 mccormick3[9,6]: - y[9,6] - u[9,6] + r[9,6] >= -1
 mccormick3[9,8]: - y[9,8] - u[9,8] + r[9,8] >= -1
 mccormick3[9,10]: - y[9,10] - u[9,10] + r[9,10] >= -1
 mccormick3[10,0]: - y[10,0] - u[10,0] + r[10,0] >= -1
 mccormick3[10,1]: - y[10,1] - u[10,1] + r[10,1] >= -1
 mccormick3[10,2]: - y[10,2] - u[10,2] + r[10,2] >= -1
 mccormick3[10,3]: - y[10,3] - u[10,3] + r[10,3] >= -1
 mccormick3[10,4]: - y[10,4] - u[10,4] + r[10,4] >= -1
 mccormick3[10,5]: - y[10,5] - u[10,5] + r[10,5] >= -1
 mccormick3[10,6]: - y[10,6] - u[10,6] + r[10,6] >= -1
 mccormick3[10,7]: - y[10,7] - u[10,7] + r[10,7] >= -1
 mccormick3[10,8]: - y[10,8] - u[10,8] + r[10,8] >= -1
 mccormick3[10,9]: - y[10,9] - u[10,9] + r[10,9] >= -1
Bounds
Binaries
 y[0,1] y[0,2] y[0,3] y[0,4] y[0,5] y[0,6] y[0,7] y[0,8] y[0,9] y[0,10]
 y[1,0] y[1,2] y[1,3] y[1,4] y[1,5] y[1,6] y[1,7] y[1,8] y[1,9] y[1,10]
 y[2,0] y[2,1] y[2,3] y[2,4] y[2,5] y[2,6] y[2,7] y[2,10] y[3,0] y[3,1]
 y[3,2] y[3,4] y[3,5] y[3,6] y[3,8] y[3,9] y[3,10] y[4,0] y[4,1] y[4,2]
 y[4,3] y[4,5] y[4,6] y[4,7] y[4,10] y[5,0] y[5,1] y[5,2] y[5,3] y[5,4]
 y[5,6] y[5,10] y[6,0] y[6,1] y[6,2] y[6,3] y[6,4] y[6,5] y[6,8] y[6,9]
 y[6,10] y[7,0] y[7,1] y[7,2] y[7,4] y[7,10] y[8,0] y[8,1] y[8,3] y[8,6]
 y[8,9] y[8,10] y[9,0] y[9,1] y[9,3] y[9,6] y[9,8] y[9,10] y[10,0] y[10,1]
 y[10,2] y[10,3] y[10,4] y[10,5] y[10,6] y[10,7] y[10,8] y[10,9] u[0,1]
 u[0,2] u[0,3] u[0,4] u[0,5] u[0,6] u[0,7] u[0,8] u[0,9] u[0,10] u[1,0]
 u[1,2] u[1,3] u[1,4] u[1,5] u[1,6] u[1,7] u[1,8] u[1,9] u[1,10] u[2,0]
 u[2,1] u[2,3] u[2,4] u[2,5] u[2,6] u[2,7] u[2,10] u[3,0] u[3,1] u[3,2]
 u[3,4] u[3,5] u[3,6] u[3,8] u[3,9] u[3,10] u[4,0] u[4,1] u[4,2] u[4,3]
 u[4,5] u[4,6] u[4,7] u[4,10] u[5,0] u[5,1] u[5,2] u[5,3] u[5,4] u[5,6]
 u[5,10] u[6,0] u[6,1] u[6,2] u[6,3] u[6,4] u[6,5] u[6,8] u[6,9] u[6,10]
 u[7,0] u[7,1] u[7,2] u[7,4] u[7,10] u[8,0] u[8,1] u[8,3] u[8,6] u[8,9]
 u[8,10] u[9,0] u[9,1] u[9,3] u[9,6] u[9,8] u[9,10] u[10,0] u[10,1] u[10,2]
 u[10,3] u[10,4] u[10,5] u[10,6] u[10,7] u[10,8] u[10,9] r[0,1] r[0,2]
 r[0,3] r[0,4] r[0,5] r[0,6] r[0,7] r[0,8] r[0,9] r[0,10] r[1,0] r[1,2]
 r[1,3] r[1,4] r[1,5] r[1,6] r[1,7] r[1,8] r[1,9] r[1,10] r[2,0] r[2,1]
 r[2,3] r[2,4] r[2,5] r[2,6] r[2,7] r[2,10] r[3,0] r[3,1] r[3,2] r[3,4]
 r[3,5] r[3,6] r[3,8] r[3,9] r[3,10] r[4,0] r[4,1] r[4,2] r[4,3] r[4,5]
 r[4,6] r[4,7] r[4,10] r[5,0] r[5,1] r[5,2] r[5,3] r[5,4] r[5,6] r[5,10]
 r[6,0] r[6,1] r[6,2] r[6,3] r[6,4] r[6,5] r[6,8] r[6,9] r[6,10] r[7,0]
 r[7,1] r[7,2] r[7,4] r[7,10] r[8,0] r[8,1] r[8,3] r[8,6] r[8,9] r[8,10]
 r[9,0] r[9,1] r[9,3] r[9,6] r[9,8] r[9,10] r[10,0] r[10,1] r[10,2] r[10,3]
 r[10,4] r[10,5] r[10,6] r[10,7] r[10,8] r[10,9]
End
